
  32    4
  10   10   10   10

   0   0   0   0   0   1 2 
   7   0   1   1   1   1 3 
   4   0   6   4   6   1 4 
   2   1   4   5   0   1 5 
   9   3   6   3   0   1 6 
   2   0   6   5   4   1 7 
   1   3   8   5   0   1 8 
   2   0   3   7   2   1 9 
   7   7   4   4   0   1 10 
   6   3   0   5   4   1 11 
   7   4   6   4   0   1 12 
   9   3   0   4   2   1 13 
   8   1   5   5   0   2 15 14 
  10   4   0   2   3   1 16 
  10   7   2   0   5   1 16 
   7   6   5   0   4   2 24 17 
   7   2   0   3   6   1 18 
   7   5   0   6   4   1 19 
   9   7   0   4   6   1 20 
   8   6   2   5   0   1 21 
   6   1   3   2   0   1 22 
   8   0   2   1   4   1 23 
   6   6   0   4   2   1 25 
   1   7   4   4   0   1 25 
   7   0   2   7   6   1 26 
   8   0   3   4   5   2 30 27 
   4   3   5   5   0   1 28 
   2   3   0   4   5   1 29 
   2   3   3   0   4   1 31 
   3   3   3   1   0   1 31 
   8   4   5   0   3   1 32
   0   0   0   0   0   0 
